35
933
2
34,40,76,13,20,79,41,41,48,93,20,21,89,73,55,11,64,78,97,72,5,29,28,82,11,25,8,24,1,17,24,45,40,67,15
21,89,77,32,84,3,11,65,32,79,51,46,80,9,37,42,21,31,5,1,96,93,21,35,60,22,65,23,31,12,4,1,78,60,84
1,2,1,1,1,1,1,2,2,1,1,1,2,1,1,1,1,1,1,2,2,1,1,2,1,1,1,2,1,2,1,1,1,1,1
